c A SAT instance generated from a 3-CNF formula that had 69 clauses and 8 variables
p cnf 8 69
7 -4 8 0
-8 2 6 0
-2 -7 6 0
-7 -6 -8 0
-5 -1 -2 0
4 7 3 0
-6 -2 -8 0
5 -1 3 0
6 -3 8 0
7 1 -4 0
-4 -2 7 0
6 5 4 0
8 3 -7 0
3 -5 -7 0
5 -3 2 0
-4 2 3 0
4 -7 -5 0
2 -1 3 0
6 -1 -4 0
5 -1 8 0
8 -6 -7 0
6 -2 5 0
-1 4 -8 0
4 7 -8 0
-4 -8 -7 0
5 -7 -1 0
1 -5 6 0
-3 1 -6 0
3 -8 4 0
-2 -1 6 0
3 -6 -1 0
-8 4 -3 0
6 8 -1 0
7 -8 3 0
-6 5 1 0
6 -5 7 0
1 -8 -4 0
5 1 6 0
-6 -1 3 0
-5 3 4 0
-4 5 1 0
6 3 -5 0
-6 -1 3 0
-7 -6 -3 0
-7 3 6 0
2 5 -4 0
5 -1 -8 0
1 7 -4 0
8 -1 -3 0
-4 -7 -6 0
7 -5 4 0
-7 3 6 0
4 -2 -8 0
4 1 7 0
-1 -6 -5 0
1 -5 3 0
-3 -4 5 0
8 -4 -1 0
-3 -5 7 0
6 5 -8 0
3 -4 -2 0
6 -7 -3 0
-4 5 8 0
-4 -1 -2 0
-8 6 5 0
3 -1 -7 0
5 8 -1 0
4 8 6 0
6 8 2 0
